language ESSENCE' 1.0
letting AssignmentMatrix be [[0, 0, 1, 0, 1, 0, 0, 0, 0, 1, 1, 0, 0, 1, 1, 0, 0, 1, 1, 1, 0, 1, 0, 0, 1], 
[0, 1, 0, 0, 0, 0, 0, 1, 0, 0, 0, 1, 0, 0, 0, 0, 1, 1, 0, 0, 0, 1, 1, 1, 0], 
[0, 0, 0, 0, 0, 0, 0, 0, 0, 0, 0, 0, 0, 0, 0, 0, 0, 0, 0, 0, 0, 0, 0, 0, 0], 
[0, 0, 0, 1, 0, 1, 1, 0, 0, 0, 0, 0, 0, 0, 0, 0, 0, 0, 0, 0, 1, 0, 0, 0, 0], 
[0, 0, 0, 0, 0, 0, 0, 0, 1, 0, 0, 0, 1, 0, 0, 0, 0, 0, 0, 0, 0, 0, 0, 0, 0]]
letting CPU be [16, 2, 2, 4, 2, 4, 4, 2, 4, 2, 2, 2, 4, 2, 2, 28, 2, 4, 2, 2, 8, 4, 2, 2, 2]
letting Memory be [488011, 3750, 3750, 15000, 3750, 30500, 7500, 3750, 7500, 3750, 3750, 3750, 15000, 3750, 3750, 488002, 3750, 15000, 3750, 3750, 15000, 15000, 3750, 3750, 3750]
letting Price be [0, 116, 116, 350, 116, 362, 210, 116, 210, 116, 116, 116, 381, 116, 116, 2, 116, 350, 116, 116, 420, 350, 116, 116, 116]
letting Storage be [12011, 2000, 2000, 4000, 2000, 1000, 2000, 2000, 2000, 2000, 2000, 2000, 2000, 2000, 2000, 12002, 2000, 4000, 2000, 2000, 2000, 4000, 2000, 2000, 2000]
letting VMType be [1, 433, 433, 316, 433, 321, 341, 433, 341, 433, 433, 433, 391, 433, 433, 1, 433, 316, 433, 433, 278, 316, 433, 433, 433]
